NPROCS=0
This instance is clustered!
Gurobi Optimizer version 9.0.0 build v9.0.0rc2 (linux64)
Optimize a model with 18 rows, 82 columns and 162 nonzeros
Model fingerprint: 0x4187bdf2
Variable types: 1 continuous, 81 integer (81 binary)
Coefficient statistics:
  Matrix range     [1e+00, 1e+00]
  Objective range  [1e+00, 4e+01]
  Bounds range     [1e+00, 1e+00]
  RHS range        [1e+00, 1e+00]
Presolve removed 2 rows and 24 columns
Presolve time: 0.00s
Presolved: 16 rows, 58 columns, 114 nonzeros
Variable types: 1 continuous, 57 integer (57 binary)

Root relaxation: objective 6.985381e+01, 17 iterations, 0.00 seconds

    Nodes    |    Current Node    |     Objective Bounds      |     Work
 Expl Unexpl |  Obj  Depth IntInf | Incumbent    BestBd   Gap | It/Node Time

     0     0   83.74232    0    6          -   83.74232      -     -    0s
H    0     0                      92.9692075   83.74232  9.92%     -    0s
     0     0   85.22935    0   19   92.96921   85.22935  8.33%     -    0s
     0     0   85.22935    0   19   92.96921   85.22935  8.33%     -    0s
     0     0   85.22935    0    6   92.96921   85.22935  8.33%     -    0s
     0     0   85.36256    0   12   92.96921   85.36256  8.18%     -    0s
     0     0   85.96201    0    6   92.96921   85.96201  7.54%     -    0s
     0     0   86.06171    0   10   92.96921   86.06171  7.43%     -    0s
     0     0   86.06171    0   10   92.96921   86.06171  7.43%     -    0s
     0     2   86.06171    0   10   92.96921   86.06171  7.43%     -    0s

Cutting planes:
  Gomory: 2
  MIR: 1
  Zero half: 1
  RLT: 2
  Lazy constraints: 8

Explored 24 nodes (124 simplex iterations) in 0.04 seconds
Thread count was 12 (of 12 available processors)

Solution count 1: 92.9692 

Optimal solution found (tolerance 1.00e-04)
Best objective 9.296920745487e+01, best bound 9.296920745487e+01, gap 0.0000%

User-callback calls 170, time in user-callback 0.00 sec
/projects/academic/josewalt/caigao/RRARP_BD/BendersDecomp/ret/model_outs/n_7_e_6_algo_2.out
 =====>>>>> Solution is written to file in <../ret/model_outs> !!!
===>> All Done!
